
Gurobi 13.0.0 (linux64) logging started Thu Jan 15 03:32:00 2026

Set parameter LogFile to value "../experiments/network-n_50_s_0_rp_0-app_set-id_38_17_apps/submip_40_epr1_model_gurobi.log"
Set parameter TimeLimit to value 8.5583396787100355e+02
Gurobi Optimizer version 13.0.0 build v13.0.0rc1 (linux64 - "Ubuntu 24.04.3 LTS")

CPU model: Intel(R) Core(TM) Ultra 7 165H, instruction set [SSE2|AVX|AVX2]
Thread count: 22 physical cores, 22 logical processors, using up to 22 threads

Non-default parameters:
TimeLimit  8.5583396787100355e+02
LogToConsole  0

Academic license 2539022 - for non-commercial use only - registered to al___@studenti.unimi.it
Optimize a model with 27922 rows, 5500 columns and 63297 nonzeros (Min)
Model fingerprint: 0xb60cb625
Model has 5500 linear objective coefficients
Model has 166 quadratic constraints
Variable types: 0 continuous, 5500 integer (5500 binary)
Coefficient statistics:
  Matrix range     [1e+00, 9e+02]
  QMatrix range    [5e+01, 2e+02]
  Objective range  [1e+01, 2e+02]
  Bounds range     [1e+00, 1e+00]
  RHS range        [1e+00, 1e+09]
  QRHS range       [1e+02, 6e+02]

MIP start from previous solve did not produce a new incumbent solution
MIP start from previous solve violates constraint fixed_app_4_microservice_3 by 1.000000000

Presolve removed 27587 rows and 4659 columns
Presolve time: 0.05s
Presolved: 4927 rows, 5291 columns, 29848 nonzeros
Variable types: 0 continuous, 5291 integer (5291 binary)

Root relaxation: objective 4.020620e+03, 721 iterations, 0.02 seconds (0.04 work units)

    Nodes    |    Current Node    |     Objective Bounds      |     Work
 Expl Unexpl |  Obj  Depth IntInf | Incumbent    BestBd   Gap | It/Node Time

     0     0 4020.62047    0  102          - 4020.62047      -     -    0s
     0     0 4020.92348    0  100          - 4020.92348      -     -    0s
     0     0 4094.97534    0  118          - 4094.97534      -     -    0s
H    0     0                    4615.0000000 4096.02203  11.2%     -    0s
     0     0 4096.02203    0  117 4615.00000 4096.02203  11.2%     -    0s
     0     0 4096.02897    0  119 4615.00000 4096.02897  11.2%     -    0s
     0     0 4125.76931    0  142 4615.00000 4125.76931  10.6%     -    0s
H    0     0                    4313.0000000 4125.76931  4.34%     -    0s
H    0     0                    4298.0000000 4125.76931  4.01%     -    0s
     0     0 4130.01283    0  132 4298.00000 4130.01283  3.91%     -    0s
     0     0 4130.49163    0  143 4298.00000 4130.49163  3.90%     -    0s
     0     0 4147.11445    0  164 4298.00000 4147.11445  3.51%     -    1s
     0     0 4147.12461    0  162 4298.00000 4147.12461  3.51%     -    1s
     0     0 4147.12461    0  162 4298.00000 4147.12461  3.51%     -    1s
     0     0 4147.12461    0  162 4298.00000 4147.12461  3.51%     -    1s
     0     2 4147.14128    0  162 4298.00000 4147.14128  3.51%     -    1s
* 1984   893              28    4295.0000000 4189.90777  2.45%  81.3    4s
  2251  1005 infeasible   23      4295.00000 4195.13622  2.33%  79.1    5s
H 2769  1169                    4259.0000000 4197.62866  1.44%  75.7    5s
H 3464  1200                    4249.0000000 4206.00784  1.01%  73.7    6s

Cutting planes:
  Gomory: 5
  Lift-and-project: 5
  Cover: 304
  Implied bound: 11
  Clique: 28
  MIR: 116
  Knapsack: 17
  StrongCG: 69
  GUB cover: 13
  Inf proof: 4
  Zero half: 8
  RLT: 133
  Relax-and-lift: 72
  BQP: 52

Explored 6717 nodes (412815 simplex iterations) in 8.29 seconds (7.19 work units)
Thread count was 22 (of 22 available processors)

Solution count 6: 4249 4259 4295 ... 4615

Optimal solution found (tolerance 1.00e-04)
Best objective 4.249000000000e+03, best bound 4.249000000000e+03, gap 0.0000%

User-callback calls 15243, time in user-callback 0.02 sec
